Set parameter Username
Set parameter LogFile to value "gurobi.log"
Academic license - for non-commercial use only - expires 2024-05-02
Using license file /Users/sissi/gurobi.lic

Gurobi Optimizer version 10.0.1 build v10.0.1rc0 (mac64[arm])
Copyright (c) 2023, Gurobi Optimization, LLC

Read OPB format model from file pbo/p_pbo_0_2480.opb
Reading time = 0.01 seconds
(null): 2005 rows, 1057 columns, 5973 nonzeros

CPU model: Apple M2
Thread count: 8 physical cores, 8 logical processors, using up to 8 threads

Optimize a model with 2005 rows, 1057 columns and 5973 nonzeros
Model fingerprint: 0x607409e2
Variable types: 0 continuous, 1057 integer (1057 binary)
Coefficient statistics:
  Matrix range     [1e+00, 1e+00]
  Objective range  [1e+00, 4e+00]
  Bounds range     [1e+00, 1e+00]
  RHS range        [1e+00, 1e+00]
Found heuristic solution: objective -360.0000000
Presolve removed 1001 rows and 511 columns
Presolve time: 0.00s
Presolved: 1004 rows, 546 columns, 3012 nonzeros
Variable types: 0 continuous, 546 integer (546 binary)

Root relaxation: objective -6.140000e+02, 123 iterations, 0.00 seconds (0.00 work units)

    Nodes    |    Current Node    |     Objective Bounds      |     Work
 Expl Unexpl |  Obj  Depth IntInf | Incumbent    BestBd   Gap | It/Node Time

     0     0 -614.00000    0   44 -360.00000 -614.00000  70.6%     -    0s
     0     0 -429.14967    0  536 -360.00000 -429.14967  19.2%     -    0s
H    0     0                    -370.0000000 -406.84562  10.0%     -    1s
     0     0 -406.84562    0  540 -370.00000 -406.84562  10.0%     -    1s
     0     0 -404.63076    0  540 -370.00000 -404.63076  9.36%     -    1s
H    0     0                    -384.0000000 -404.12286  5.24%     -    1s
     0     0 -404.12286    0  539 -384.00000 -404.12286  5.24%     -    1s
     0     0 -404.00129    0  539 -384.00000 -404.00129  5.21%     -    1s
H    0     0                    -395.0000000 -398.53432  0.89%     -    2s
     0     0 -398.53432    0  539 -395.00000 -398.53432  0.89%     -    2s
     0     0 -397.24306    0  539 -395.00000 -397.24306  0.57%     -    2s
     0     0 -396.77420    0  538 -395.00000 -396.77420  0.45%     -    2s
     0     0 -396.58330    0  540 -395.00000 -396.58330  0.40%     -    2s
     0     0     cutoff    0      -395.00000 -395.00000  0.00%     -    2s

Cutting planes:
  MIR: 139
  StrongCG: 1
  RLT: 243

Explored 1 nodes (7152 simplex iterations) in 3.00 seconds (1.27 work units)
Thread count was 8 (of 8 available processors)

Solution count 4: -395 -384 -370 -360 
No other solutions better than -395

Optimal solution found (tolerance 1.00e-04)
Best objective -3.950000000000e+02, best bound -3.950000000000e+02, gap 0.0000%

Wrote result file 'solution/p_0_2480.sol'

